max: 20x1 + 15x2 + 25x3 - 6y1plus + 6y1minus + 3y2minus;

20x1 + 15x2 + 25x3 - 20x1 - 15x2 - 25x3 + 6y1plus - 6y1plus - 3y2minus = 0;
6x1 + 4x2 + 5x3 + y1minus - y1plus = 50;
8x1 + 7x2 + 5x3 + y2minus - y2plus = 75;